% seed = 9410730

mint = 41;
% maxt = 110;

nActs = 22;
dur = [0,4,7,10,4,2,1,8,10,4,5,5,4,1,5,6,7,7,10,9,1,0];

nSkills = 4;
sreq = [| 0,0,0,0,
	| 2,3,0,3,
	| 1,2,0,1,
	| 3,1,3,0,
	| 3,2,2,0,
	| 2,2,0,1,
	| 3,2,0,2,
	| 2,2,0,1,
	| 1,3,0,1,
	| 1,3,1,0,
	| 2,1,2,0,
	| 1,0,1,1,
	| 2,0,3,1,
	| 3,3,0,3,
	| 0,2,2,1,
	| 2,3,3,0,
	| 3,1,0,2,
	| 2,0,3,2,
	| 3,0,3,1,
	| 2,3,0,1,
	| 2,2,0,1,
	| 0,0,0,0, |];

nResources = 25;
mastery = [| true,false,false,false,
	| false,false,true,false,
	| true,false,true,true,
	| false,true,true,false,
	| false,false,false,true,
	| true,false,true,true,
	| true,false,true,false,
	| false,true,false,true,
	| true,false,true,true,
	| false,true,false,false,
	| true,false,false,true,
	| false,false,true,false,
	| true,true,true,false,
	| false,true,false,false,
	| true,true,false,false,
	| false,true,false,false,
	| true,true,false,true,
	| false,false,true,false,
	| false,true,true,true,
	| false,false,false,true,
	| false,false,false,true,
	| false,true,true,true,
	| false,true,true,true,
	| true,true,true,false,
	| false,true,false,false, |];

nPrecs = 31;
pred = [1,1,1,2,2,2,3,4,5,5,6,6,6,7,8,9,10,11,12,12,12,13,14,15,16,16,17,18,19,20,21];
succ = [2,3,4,5,6,7,13,9,11,8,17,11,16,18,10,12,21,12,13,14,15,19,16,20,20,21,20,21,22,22,22];

nUnrels = 105;
unpred = [2,2,2,3,3,3,3,3,3,3,3,3,3,3,3,3,3,3,3,4,4,4,4,4,4,4,4,5,5,5,5,5,6,6,6,6,6,7,7,7,7,7,7,7,7,7,7,7,7,8,8,8,8,8,8,8,8,8,8,8,9,9,9,9,10,10,10,10,10,10,10,10,10,10,11,11,12,12,13,13,13,13,13,13,13,14,14,14,14,15,15,15,15,15,16,16,16,17,17,17,18,18,19,19,20];
unsucc = [3,4,9,4,5,6,7,8,9,10,11,12,14,15,16,17,18,20,21,5,6,7,8,10,11,17,18,6,7,9,17,18,7,8,9,10,18,8,9,10,11,12,13,14,15,16,17,19,20,9,11,12,13,14,15,16,17,18,19,20,10,11,17,18,11,12,13,14,15,16,17,18,19,20,17,18,17,18,14,15,16,17,18,20,21,15,17,18,19,16,17,18,19,21,17,18,19,18,19,21,19,20,20,21,21];

USEFUL_RES = [{},
	{1,3,4,5,6,7,8,9,10,11,13,14,15,16,17,19,20,21,22,23,24,25},
	{1,3,4,5,6,7,8,9,10,11,13,14,15,16,17,19,20,21,22,23,24,25},
	{1,2,3,4,6,7,8,9,10,11,12,13,14,15,16,17,18,19,22,23,24,25},
	{1,2,3,4,6,7,8,9,10,11,12,13,14,15,16,17,18,19,22,23,24,25},
	{1,3,4,5,6,7,8,9,10,11,13,14,15,16,17,19,20,21,22,23,24,25},
	{1,3,4,5,6,7,8,9,10,11,13,14,15,16,17,19,20,21,22,23,24,25},
	{1,3,4,5,6,7,8,9,10,11,13,14,15,16,17,19,20,21,22,23,24,25},
	{1,3,4,5,6,7,8,9,10,11,13,14,15,16,17,19,20,21,22,23,24,25},
	{1,2,3,4,6,7,8,9,10,11,12,13,14,15,16,17,18,19,22,23,24,25},
	{1,2,3,4,6,7,8,9,10,11,12,13,14,15,16,17,18,19,22,23,24,25},
	{1,2,3,4,5,6,7,8,9,11,12,13,15,17,18,19,20,21,22,23,24},
	{1,2,3,4,5,6,7,8,9,11,12,13,15,17,18,19,20,21,22,23,24},
	{1,3,4,5,6,7,8,9,10,11,13,14,15,16,17,19,20,21,22,23,24,25},
	{2,3,4,5,6,7,8,9,10,11,12,13,14,15,16,17,18,19,20,21,22,23,24,25},
	{1,2,3,4,6,7,8,9,10,11,12,13,14,15,16,17,18,19,22,23,24,25},
	{1,3,4,5,6,7,8,9,10,11,13,14,15,16,17,19,20,21,22,23,24,25},
	{1,2,3,4,5,6,7,8,9,11,12,13,15,17,18,19,20,21,22,23,24},
	{1,2,3,4,5,6,7,8,9,11,12,13,15,17,18,19,20,21,22,23,24},
	{1,3,4,5,6,7,8,9,10,11,13,14,15,16,17,19,20,21,22,23,24,25},
	{1,3,4,5,6,7,8,9,10,11,13,14,15,16,17,19,20,21,22,23,24,25},
	{}];

POTENTIAL_ACT = [{2,3,4,5,6,7,8,9,10,11,12,13,14,16,17,18,19,20,21},
	{4,5,10,11,12,13,15,16,18,19},
	{2,3,4,5,6,7,8,9,10,11,12,13,14,15,16,17,18,19,20,21},
	{2,3,4,5,6,7,8,9,10,11,12,13,14,15,16,17,18,19,20,21},
	{2,3,6,7,8,9,12,13,14,15,17,18,19,20,21},
	{2,3,4,5,6,7,8,9,10,11,12,13,14,15,16,17,18,19,20,21},
	{2,3,4,5,6,7,8,9,10,11,12,13,14,15,16,17,18,19,20,21},
	{2,3,4,5,6,7,8,9,10,11,12,13,14,15,16,17,18,19,20,21},
	{2,3,4,5,6,7,8,9,10,11,12,13,14,15,16,17,18,19,20,21},
	{2,3,4,5,6,7,8,9,10,11,14,15,16,17,20,21},
	{2,3,4,5,6,7,8,9,10,11,12,13,14,15,16,17,18,19,20,21},
	{4,5,10,11,12,13,15,16,18,19},
	{2,3,4,5,6,7,8,9,10,11,12,13,14,15,16,17,18,19,20,21},
	{2,3,4,5,6,7,8,9,10,11,14,15,16,17,20,21},
	{2,3,4,5,6,7,8,9,10,11,12,13,14,15,16,17,18,19,20,21},
	{2,3,4,5,6,7,8,9,10,11,14,15,16,17,20,21},
	{2,3,4,5,6,7,8,9,10,11,12,13,14,15,16,17,18,19,20,21},
	{4,5,10,11,12,13,15,16,18,19},
	{2,3,4,5,6,7,8,9,10,11,12,13,14,15,16,17,18,19,20,21},
	{2,3,6,7,8,9,12,13,14,15,17,18,19,20,21},
	{2,3,6,7,8,9,12,13,14,15,17,18,19,20,21},
	{2,3,4,5,6,7,8,9,10,11,12,13,14,15,16,17,18,19,20,21},
	{2,3,4,5,6,7,8,9,10,11,12,13,14,15,16,17,18,19,20,21},
	{2,3,4,5,6,7,8,9,10,11,12,13,14,15,16,17,18,19,20,21},
	{2,3,4,5,6,7,8,9,10,11,14,15,16,17,20,21}];
